CMD:
./solvers/bin/cadical --plain --no-reduce -t 1600 ./data/cnfs//6s277rb292/6s277rb292.88.cnf

c --- [ banner ] -------------------------------------------------------------
c 
c CaDiCaL SAT Solver
c Copyright (c) 2016-2024
c A. Biere, M. Fleury, N. Froleyks, K. Fazekas, F. Pollitt, T. Faller
c JKU Linz, University of Freiburg, TU Wien
c 
c Version 2.1.3 5296d3d2a9bf48c154ab2acb5e44625776d821bf
c g++ (Gentoo 12.3.1_p20230526 p2) 12.3.1 20230526 -Wall -Wextra -O3 -DNDEBUG
c Sat Aug 9 07:26:21 PDT 2025 Linux cedar2.int.cedar.computecanada.ca 5.14.0-362.24.2.el9_3.x86_64 x86_64
c 
c --- [ limit ] --------------------------------------------------------------
c 
c setting time limit to 1600 seconds real time (due to '-t 1600')
c 
c --- [ parsing input ] ------------------------------------------------------
c 
c reading DIMACS file from './data/cnfs//6s277rb292/6s277rb292.88.cnf'
c opening file to read './data/cnfs//6s277rb292/6s277rb292.88.cnf'
c found 'p cnf 1397996 4133780' header
c parsed 4133780 clauses in 0.61 seconds process time
c 
c --- [ options ] ------------------------------------------------------------
c 
c   --compact=false                (different from default 'true')
c   --decompose=false              (different from default 'true')
c   --deduplicate=false            (different from default 'true')
c   --elim=false                   (different from default 'true')
c   --probe=false                  (different from default 'true')
c   --reduce=false                 (different from default 'true')
c   --subsume=false                (different from default 'true')
c   --ternary=false                (different from default 'true')
c   --transred=false               (different from default 'true')
c   --vivify=false                 (different from default 'true')
c 
c --- [ solving ] ------------------------------------------------------------
c 
c time measured in process time since initialization
c 
c  seconds   reductions  redundant   irredundant
c          MB    restarts       trail        variables
c           level   conflicts       glue           remaining
c 
c *  0.62 525  0 0   0    0    0  0% 0 2883407 741475 53%
c {  0.87 534  0 0   0    0    0  0% 0 2883407 741475 53%
c i  1.39 535 6287 0  14  220  149 69% 5 2883407 741464 53%
c i  1.43 535 5771 0  18  236  162 67% 6 2883407 741390 53%
c i  1.50 535 5220 0  21  254  172 66% 6 2883407 741305 53%
c i  1.71 535 4000 0  33  313  223 64% 6 2883407 741220 53%
c i  1.71 535 3937 0  33  317  225 64% 6 2883407 741209 53%
c i  1.73 535 3662 0  33  336  241 63% 6 2883407 741135 53%
c i  3.32 536 1816 0  40  658  497 63% 5 2883407 740965 53%
c i  3.76 536 1405 0  40  836  655 62% 4 2883407 740880 53%
c i  4.10 536 1206 0  47  980  765 62% 4 2883407 694404 50%
c i  4.17 536 1188 0  47  993  775 62% 4 2883407 588331 42%
c i  4.18 536 1187 0  47  994  775 62% 4 2883407 583621 42%
c i  4.18 536 1184 0  47  996  776 62% 4 2883407 578389 41%
c }  4.19 536 1183 0  47  998  776 62% 4 2883407 576279 41%
c 0  4.19 536 1183 0  47  998  776 62% 4 2883407 576279 41%
c 
c --- [ result ] -------------------------------------------------------------
c 
s UNSATISFIABLE
c 
c --- [ run-time profiling ] -------------------------------------------------
c 
c process time taken by individual solving procedures
c (percentage relative to process time for solving)
c 
c         3.57  100.00% search
c         3.32   92.96% unstable
c         0.61   17.22% parse
c         0.25    7.03% lucky
c         0.00    0.00% simplify
c   =================================
c         3.57   85.30% solve
c 
c last line shows process time for solving
c (percentage relative to total process time)
c 
c --- [ statistics ] ---------------------------------------------------------
c 
c chronological:               522        52.30 %  of conflicts
c conflicts:                   998       279.47    per second
c decisions:                 23980      6715.10    per second
c fixed:                    810872        58.00 %  of all variables
c learned:                     847        84.87 %  per conflict
c learned_lits:              20068       100.00 %  learned literals
c minimized:                     0         0.00 %  learned literals
c shrunken:                   8646        43.08 %  learned literals
c minishrunken:               3188        15.89 %  learned literals
c otfs:                         46         4.61 %  of conflict
c propagations:           40304010        11.29 M  per second
c restarts:                     47        21.23    interval
c subsumed:                     59         0.00 %  of all clauses
c strengthened:                 45         0.00 %  of all clauses
c 
c seconds are measured in process time for solving
c 
c --- [ resources ] ----------------------------------------------------------
c 
c total process time since initialization:         4.19    seconds
c total real time since initialization:            4.21    seconds
c maximum resident set size of process:          534.03    MB
c 
c --- [ shutting down ] ------------------------------------------------------
c 
c exit 20
